
Gurobi 9.5.2 (mac64[arm]) logging started Fri Apr 28 12:58:18 2023

Set parameter LogFile to value "Java/output/pure_mip_2_machine/scenario_seed_0_nJob_20_machineCount_2/mip_increment_1/log.txt"
Gurobi Optimizer version 9.5.2 build v9.5.2rc0 (mac64[arm])
Thread count: 8 physical cores, 8 logical processors, using up to 8 threads
Optimize a model with 1318 rows, 12726 columns and 161024 nonzeros
Model fingerprint: 0x3753e37f
Variable types: 0 continuous, 12726 integer (12726 binary)
Coefficient statistics:
  Matrix range     [1e+00, 1e+02]
  Objective range  [1e+00, 1e+06]
  Bounds range     [1e+00, 1e+00]
  RHS range        [1e+00, 1e+00]
Presolve removed 238 rows and 3641 columns
Presolve time: 0.18s
Presolved: 1080 rows, 9085 columns, 114693 nonzeros
Variable types: 0 continuous, 9085 integer (9085 binary)

Root relaxation: objective 3.422755e+05, 5930 iterations, 0.33 seconds (0.70 work units)

    Nodes    |    Current Node    |     Objective Bounds      |     Work
 Expl Unexpl |  Obj  Depth IntInf | Incumbent    BestBd   Gap | It/Node Time

     0     0 342275.539    0  223          - 342275.539      -     -    0s
     0     0 355609.372    0  280          - 355609.372      -     -    1s
     0     0 355703.533    0  272          - 355703.533      -     -    1s
     0     0 362871.757    0  315          - 362871.757      -     -    1s
     0     0 363938.446    0  323          - 363938.446      -     -    1s
     0     0 363938.502    0  326          - 363938.502      -     -    1s
     0     0 380030.667    0  326          - 380030.667      -     -    2s
     0     0 382389.989    0  325          - 382389.989      -     -    2s
     0     0 382604.377    0  325          - 382604.377      -     -    2s
     0     0 382622.408    0  333          - 382622.408      -     -    2s
     0     0 382624.246    0  342          - 382624.246      -     -    2s
     0     0 392348.732    0  381          - 392348.732      -     -    3s
H    0     0                    827472.00000 392348.732  52.6%     -    3s
H    0     0                    744892.00000 392348.732  47.3%     -    3s
     0     0 395430.926    0  399 744892.000 395430.926  46.9%     -    3s
     0     0 395903.374    0  412 744892.000 395903.374  46.9%     -    4s
     0     0 396151.850    0  422 744892.000 396151.850  46.8%     -    4s
     0     0 396181.055    0  416 744892.000 396181.055  46.8%     -    4s
H    0     0                    587340.00000 396189.272  32.5%     -    4s
     0     0 396189.272    0  425 587340.000 396189.272  32.5%     -    4s
     0     0 398285.937    0  419 587340.000 398285.937  32.2%     -    4s
H    0     0                    575551.00000 398285.937  30.8%     -    4s
     0     0 398388.560    0  424 575551.000 398388.560  30.8%     -    4s
     0     0 398430.057    0  431 575551.000 398430.057  30.8%     -    4s
     0     0 398434.053    0  433 575551.000 398434.053  30.8%     -    4s
     0     0 399889.650    0  433 575551.000 399889.650  30.5%     -    5s
H    0     0                    573623.00000 399889.650  30.3%     -    5s
H    0     0                    573012.00000 399889.650  30.2%     -    5s
     0     0 400027.475    0  428 573012.000 400027.475  30.2%     -    5s
     0     0 400064.060    0  422 573012.000 400064.060  30.2%     -    5s
     0     0 400065.120    0  427 573012.000 400065.120  30.2%     -    5s
     0     0 401554.802    0  426 573012.000 401554.802  29.9%     -    5s
H    0     0                    568191.00000 401554.802  29.3%     -    5s
     0     0 401749.179    0  457 568191.000 401749.179  29.3%     -    5s
     0     0 401798.603    0  459 568191.000 401798.603  29.3%     -    6s
     0     0 401806.603    0  460 568191.000 401806.603  29.3%     -    6s
H    0     0                    549708.00000 402661.577  26.7%     -    6s
H    0     0                    542652.00000 402661.577  25.8%     -    6s
     0     0 402661.577    0  436 542652.000 402661.577  25.8%     -    6s
H    0     0                    535114.00000 402661.577  24.8%     -    6s
     0     0 402972.461    0  448 535114.000 402972.461  24.7%     -    6s
     0     0 403002.913    0  453 535114.000 403002.913  24.7%     -    6s
     0     0 403707.907    0  444 535114.000 403707.907  24.6%     -    7s
H    0     0                    534661.00000 403707.907  24.5%     -    7s
     0     0 403875.338    0  468 534661.000 403875.338  24.5%     -    7s
     0     0 403902.607    0  478 534661.000 403902.607  24.5%     -    7s
     0     0 404380.026    0  465 534661.000 404380.026  24.4%     -    7s
     0     0 405478.049    0  419 534661.000 405478.049  24.2%     -    7s
     0     0 405596.971    0  447 534661.000 405596.971  24.1%     -    7s
     0     0 405603.313    0  453 534661.000 405603.313  24.1%     -    7s
     0     0 406200.119    0  442 534661.000 406200.119  24.0%     -    8s
H    0     0                    438131.00000 406200.119  7.29%     -    8s
     0     0 406322.618    0  465 438131.000 406322.618  7.26%     -    8s
     0     0 406343.738    0  476 438131.000 406343.738  7.26%     -    8s
     0     0 406638.495    0  454 438131.000 406638.495  7.19%     -    8s
     0     0 406638.495    0  210 438131.000 406638.495  7.19%     -    9s
H    0     0                    438039.00000 406638.495  7.17%     -    9s
     0     0 406638.495    0  353 438039.000 406638.495  7.17%     -    9s
     0     0 406638.495    0  391 438039.000 406638.495  7.17%     -    9s
     0     0 406638.495    0  404 438039.000 406638.495  7.17%     -   10s
     0     0 406638.495    0  442 438039.000 406638.495  7.17%     -   10s
     0     0 406781.112    0  445 438039.000 406781.112  7.14%     -   10s
     0     0 407067.107    0  444 438039.000 407067.107  7.07%     -   10s
     0     0 407265.749    0  443 438039.000 407265.749  7.03%     -   10s
     0     0 407269.584    0  446 438039.000 407269.584  7.02%     -   10s
     0     0 407738.401    0  440 438039.000 407738.401  6.92%     -   10s
H    0     0                    434953.00000 407738.401  6.26%     -   10s
     0     0 407764.267    0  442 434953.000 407764.267  6.25%     -   10s
     0     0 408707.570    0  457 434953.000 408707.570  6.03%     -   11s
     0     0 409118.166    0  462 434953.000 409118.166  5.94%     -   11s
     0     0 409160.684    0  464 434953.000 409160.684  5.93%     -   11s
     0     0 409179.258    0  466 434953.000 409179.258  5.93%     -   11s
     0     0 409667.232    0  473 434953.000 409667.232  5.81%     -   12s
     0     0 409788.201    0  467 434953.000 409788.201  5.79%     -   12s
     0     0 409808.368    0  476 434953.000 409808.368  5.78%     -   12s
     0     0 409835.350    0  496 434953.000 409835.350  5.77%     -   12s
     0     0 409835.350    0  471 434953.000 409835.350  5.77%     -   12s
     0     2 409851.496    0  470 434953.000 409851.496  5.77%     -   13s
    15    22 414970.000    4   40 434953.000 413981.946  4.82%  2462   15s
H   32    32                    424616.00000 413988.662  2.50%  2017   15s
H   33    32                    424317.00000 413988.662  2.43%  2025   15s
H   72    36                    414970.00000 413988.662  0.24%  1275   16s

Cutting planes:
  Cover: 13
  Clique: 76
  MIR: 93
  StrongCG: 40
  GUB cover: 119
  Zero half: 6
  RLT: 9

Explored 119 nodes (171145 simplex iterations) in 16.92 seconds (36.75 work units)
Thread count was 8 (of 8 available processors)

Solution count 10: 414970 424317 424616 ... 549708

Optimal solution found (tolerance 1.00e-04)
Best objective 4.149700000000e+05, best bound 4.149700000000e+05, gap 0.0000%
